Route #0: 11 65 66 59 14
Route #1: 23 56 43 41 42 64 22 61
Route #2: 47 36 69 71 60 70 20 37 15 57 13
Route #3: 72 10 31 25 55 18 50 24 49
Route #4: 48 5 21 28 62 1 73
Route #5: 3 44 32 9 39 40
Route #6: 35 19 54 8 7 53 38 58
Route #7: 29 45 27 52 46 34
Route #8: 12 17 51 16 63 33 6
Route #9: 26 67
Route #10: 4 30 74 2 68 75
Cost 914.271259983914
Time 30
